Gurobi Optimizer version 9.1.0 build v9.1.0rc0 (linux64)
Thread count: 8 physical cores, 16 logical processors, using up to 16 threads
Optimize a model with 43946 rows, 40320 columns and 230780 nonzeros
Model fingerprint: 0x6aa7cac1
Variable types: 0 continuous, 40320 integer (40320 binary)
Coefficient statistics:
  Matrix range     [1e+00, 1e+00]
  Objective range  [1e+01, 3e+04]
  Bounds range     [1e+00, 1e+00]
  RHS range        [1e+00, 2e+02]
Presolve removed 20 rows and 20 columns
Presolve time: 0.86s
Presolved: 43926 rows, 40300 columns, 230740 nonzeros
Variable types: 0 continuous, 40300 integer (40300 binary)
Found heuristic solution: objective 178508.00000

Concurrent LP optimizer: primal simplex, dual simplex, and barrier
Showing barrier log only...

Root barrier log...

Ordering time: 0.19s

Barrier statistics:
 Dense cols : 160
 AA' NZ     : 2.012e+05
 Factor NZ  : 8.978e+05 (roughly 40 MBytes of memory)
 Factor Ops : 4.390e+07 (less than 1 second per iteration)
 Threads    : 6

                  Objective                Residual
Iter       Primal          Dual         Primal    Dual     Compl     Time
   0   1.19921525e+07 -7.62036210e+04  4.86e+01 0.00e+00  7.54e+02     2s
   1   2.65085007e+05 -3.35221311e+06  2.70e-01 5.41e+02  3.22e+01     2s
   2   2.12528519e+05 -1.29874914e+05  4.44e-02 4.59e+01  2.77e+00     2s
   3   1.96585963e+05  8.49062345e+04  1.83e-02 1.16e+01  8.83e-01     2s
   4   1.67739726e+05  1.30002555e+05  8.59e-04 4.13e+00  3.04e-01     2s
   5   1.61664397e+05  1.42452986e+05  3.83e-04 2.08e+00  1.55e-01     2s
   6   1.58717276e+05  1.46596112e+05  2.23e-04 1.38e+00  9.76e-02     2s
   7   1.56577379e+05  1.49182943e+05  1.17e-04 8.94e-01  5.96e-02     2s
   8   1.55541480e+05  1.51182216e+05  7.09e-05 5.40e-01  3.51e-02     2s
   9   1.55034468e+05  1.52388292e+05  4.86e-05 3.01e-01  2.13e-02     3s
  10   1.54814118e+05  1.52781110e+05  3.92e-05 2.19e-01  1.64e-02     3s
  11   1.54562440e+05  1.53140026e+05  2.87e-05 1.44e-01  1.14e-02     3s
  12   1.54263548e+05  1.53331305e+05  1.66e-05 1.07e-01  7.51e-03     3s
  13   1.54196368e+05  1.53509068e+05  1.39e-05 7.15e-02  5.53e-03     3s
  14   1.54101689e+05  1.53596902e+05  1.01e-05 5.30e-02  4.06e-03     3s
  15   1.54033094e+05  1.53655455e+05  7.35e-06 4.02e-02  3.04e-03     3s
  16   1.53987857e+05  1.53701218e+05  5.55e-06 3.06e-02  2.31e-03     3s
  17   1.53958210e+05  1.53729981e+05  4.39e-06 2.45e-02  1.84e-03     3s
  18   1.53938613e+05  1.53759690e+05  3.64e-06 1.79e-02  1.44e-03     3s
  19   1.53917826e+05  1.53786063e+05  2.83e-06 1.21e-02  1.06e-03     3s
  20   1.53898018e+05  1.53795575e+05  2.07e-06 1.02e-02  8.25e-04     3s
  21   1.53888800e+05  1.53815946e+05  1.73e-06 5.86e-03  5.86e-04     3s
  22   1.53866045e+05  1.53826842e+05  8.45e-07 3.54e-03  3.15e-04     3s
  23   1.53859238e+05  1.53832981e+05  5.77e-07 2.19e-03  2.11e-04     3s
  24   1.53854760e+05  1.53836092e+05  4.09e-07 1.54e-03  1.50e-04     3s
  25   1.53852442e+05  1.53838432e+05  3.24e-07 1.04e-03  1.13e-04     3s
  26   1.53847757e+05  1.53839529e+05  1.51e-07 8.12e-04  6.62e-05     4s
  27   1.53846196e+05  1.53841771e+05  9.46e-08 3.29e-04  3.56e-05     4s
  28   1.53844276e+05  1.53842547e+05  2.66e-08 1.74e-04  1.39e-05     4s
  29   1.53843917e+05  1.53842951e+05  1.43e-08 9.58e-05  7.79e-06     4s
  30   1.53843771e+05  1.53843283e+05  9.62e-09 3.56e-05  3.93e-06     4s
  31   1.53843569e+05  1.53843374e+05  3.06e-09 1.77e-05  1.57e-06     4s
  32   1.53843492e+05  1.53843409e+05  6.92e-10 1.12e-05  6.69e-07     4s
  33   1.53843470e+05  1.53843459e+05  1.83e-09 1.97e-06  9.17e-08     4s
  34   1.53843470e+05  1.53843470e+05  3.19e-11 3.28e-08  1.15e-10     4s

Barrier solved model in 34 iterations and 3.86 seconds
Optimal objective 1.53843470e+05


Solved with barrier

Root relaxation: objective 1.538435e+05, 2443 iterations, 2.88 seconds

    Nodes    |    Current Node    |     Objective Bounds      |     Work
 Expl Unexpl |  Obj  Depth IntInf | Incumbent    BestBd   Gap | It/Node Time

     0     0 153843.470    0 6977 178508.000 153843.470  13.8%     -    6s
H    0     0                    163692.00000 153843.470  6.02%     -    6s
H    0     0                    157455.00000 153843.470  2.29%     -    6s
H    0     0                    157052.00000 153843.470  2.04%     -    6s
H    0     0                    157006.00000 153843.470  2.01%     -    7s
H    0     0                    156938.00000 153843.470  1.97%     -   12s
     0     0 153850.085    0 6977 156938.000 153850.085  1.97%     -   13s
     0     0 153850.427    0 6980 156938.000 153850.427  1.97%     -   15s
     0     0 153851.599    0 6983 156938.000 153851.599  1.97%     -   19s
H    0     0                    156936.00000 153851.599  1.97%     -   20s
     0     0 153852.072    0 6985 156936.000 153852.072  1.97%     -   21s
     0     0 153852.239    0 6983 156936.000 153852.239  1.96%     -   23s
     0     0 153852.311    0 6983 156936.000 153852.311  1.96%     -   23s
     0     0 153852.311    0 6983 156936.000 153852.311  1.96%     -   29s
H    0     2                    156923.00000 153852.513  1.96%     -   52s
     0     2 153852.513    0 6977 156923.000 153852.513  1.96%     -   52s
     1     4 153885.487    1 6974 156923.000 153852.513  1.96%  2679  124s
     3     8 153938.156    2 7159 156923.000 153886.008  1.94% 15977  140s
     7     8 153941.735    3 7077 156923.000 153941.735  1.90% 10310  156s
    15    14 154056.996    4 6761 156923.000 153941.787  1.90%  7741  202s
    23    20 154057.652    5 6817 156923.000 154057.012  1.83%  8056  258s
H   31    28                    156898.00000 154057.676  1.81%  7753  263s
H   32    28                    156885.00000 154058.864  1.80%  7534  263s
H   32    28                    156881.00000 154058.864  1.80%  7534  264s
H   34    28                    156867.00000 154058.864  1.79%  7158  264s
    39    32 154655.357    6 6952 156867.000 154067.569  1.78%  6586  284s
    47    45 154070.659    7 6673 156867.000 154068.289  1.78%  6034  300s

Cutting planes:
  Gomory: 5

Explored 62 nodes (293562 simplex iterations) in 300.02 seconds
Thread count was 16 (of 16 available processors)

Solution count 10: 156867 156881 156885 ... 157455

Time limit reached
Best objective 1.568670000000e+05, best bound 1.540690000000e+05, gap 1.7837%

User-callback calls 180038, time in user-callback 2.16 sec
Result: runtime=300.01sec; objective=156867; gap=1.7837%
Solution written to /autofs/unityaccount/cremi/mdeboute/Bureau/multi-period-flp/solution//instSingle_I20_J250_T8_0_result.txt
